NAME : mtspf
TYPE : ATSP
DIMENSION : 5
EDGE_WEIGHT_TYPE : EXPLICIT
EDGE_WEIGHT_FORMAT : FULL_MATRIX
EDGE_WEIGHT_SECTION
99999 99999 99999 99999 99999 
0 99999 0 12 0 
99999 12 99999 2 0 
0 10 0 99999 0 
-99999 26 99999 18 99999 
EOF
